175
10000
5367
994
8726
4858
2241
548
982
4301
1724
5824
575
6165
3076
2697
1699
1701
754
7090
4058
150
6810
2853
195
4784
3316
4672
832
8299
6720
2798
723
6
9646
1235
2537
1404
7987
3344
4042
9287
6109
2587
5165
2238
4665
1076
2289
4898
536
5701
3432
8295
3891
973
1184
8691
9512
1883
9027
7118
4557
2164
5057
197
2282
6354
957
3449
2515
2276
2679
6086
1063
3200
3225
3204
8276
9013
3281
1687
2190
296
9446
1240
5835
1274
3190
7771
19
5305
3545
9296
488
1217
8150
1991
2916
633
782
987
1922
2282
2228
2013
2140
3654
1446
1274
2038
354
4132
791
1309
5443
2882
4097
390
1705
1410
4458
407
2469
979
744
5927
4230
5235
2910
2040
917
3740
2551
1629
5942
4480
3906
3426
6575
2477
1292
6943
409
3033
5268
1396
8726
3275
505
3400
6094
3010
3974
2229
5770
229
7962
1263
6346
481
704
215
323
4734
3793
5394
1217
650
5328
2228
1056
3406
8180
6090
2232
3910
